;test regex 							 000[04]  #No year 0 and no leap year in year 4
(declare-const X String)
(assert (str.in_re X (re.++ (str.to_re " ") (re.++ (str.to_re "000") (re.++ (str.to_re "04") (re.++ (str.to_re " ") (re.++ (str.to_re " ") (re.++ (str.to_re "#") (re.++ (str.to_re "N") (re.++ (str.to_re "o") (re.++ (str.to_re " ") (re.++ (str.to_re "y") (re.++ (str.to_re "e") (re.++ (str.to_re "a") (re.++ (str.to_re "r") (re.++ (str.to_re " ") (re.++ (str.to_re "0") (re.++ (str.to_re " ") (re.++ (str.to_re "a") (re.++ (str.to_re "n") (re.++ (str.to_re "d") (re.++ (str.to_re " ") (re.++ (str.to_re "n") (re.++ (str.to_re "o") (re.++ (str.to_re " ") (re.++ (str.to_re "l") (re.++ (str.to_re "e") (re.++ (str.to_re "a") (re.++ (str.to_re "p") (re.++ (str.to_re " ") (re.++ (str.to_re "y") (re.++ (str.to_re "e") (re.++ (str.to_re "a") (re.++ (str.to_re "r") (re.++ (str.to_re " ") (re.++ (str.to_re "i") (re.++ (str.to_re "n") (re.++ (str.to_re " ") (re.++ (str.to_re "y") (re.++ (str.to_re "e") (re.++ (str.to_re "a") (re.++ (str.to_re "r") (re.++ (str.to_re " ") (str.to_re "4"))))))))))))))))))))))))))))))))))))))))))))
; sanitize danger characters:  < > ' " &
(assert (not (str.in_re X (re.++ re.all (re.union (str.to_re "\u{3c}") (str.to_re "\u{3e}") (str.to_re "\u{27}") (str.to_re "\u{22}") (str.to_re "\u{26}")) re.all))))
(assert (< 10 (str.len X)))
(check-sat)
(get-model)